SumColouring/JavaBacktracker/RandomInstances/18_0.60_2.col
c File: instances/18_0.60_2.col
c
c Description: Random graph of size 18 vertices and P(0.6) of edges between any two vertices.
p col 18 153
e 1 2
e 1 3
e 1 6
e 1 7
e 1 9
e 1 10
e 1 11
e 1 12
e 1 13
e 1 17
e 1 18
e 2 3
e 2 5
e 2 7
e 2 8
e 2 9
e 2 11
e 2 13
e 2 14
e 2 16
e 3 6
e 3 7
e 3 8
e 3 9
e 3 14
e 3 15
e 3 17
e 3 18
e 4 9
e 4 12
e 5 10
e 5 11
e 5 12
e 5 14
e 5 15
e 6 7
e 6 8
e 6 9
e 6 10
e 6 11
e 6 13
e 6 18
e 7 9
e 7 10
e 7 11
e 7 13
e 7 14
e 7 16
e 7 18
e 8 9
e 8 13
e 8 16
e 8 17
e 8 18
e 9 12
e 9 15
e 9 17
e 9 18
e 10 11
e 10 12
e 10 16
e 10 18
e 11 12
e 11 13
e 11 14
e 11 17
e 12 13
e 12 14
e 12 16
e 12 17
e 13 14
e 13 15
e 13 16
e 13 17
e 13 18
e 14 15
e 14 16
e 14 17
e 15 18
e 16 17
e 16 18
e 17 18