SumColouring/MiniZinc model/Experiments/18_0.60_2.col.dzn
% Data file generated from RandomInstances/18_0.60_2.col DIMACS file
size = 18;

chi = 6;

adjacency = [|0,1,1,0,0,1,1,0,1,1,1,1,1,0,0,0,1,1,
|1,0,1,0,1,0,1,1,1,0,1,0,1,1,0,1,0,0,
|1,1,0,0,0,1,1,1,1,0,0,0,0,1,1,0,1,1,
|0,0,0,0,0,0,0,0,1,0,0,1,0,0,0,0,0,0,
|0,1,0,0,0,0,0,0,0,1,1,1,0,1,1,0,0,0,
|1,0,1,0,0,0,1,1,1,1,1,0,1,0,0,0,0,1,
|1,1,1,0,0,1,0,0,1,1,1,0,1,1,0,1,0,1,
|0,1,1,0,0,1,0,0,1,0,0,0,1,0,0,1,1,1,
|1,1,1,1,0,1,1,1,0,0,0,1,0,0,1,0,1,1,
|1,0,0,0,1,1,1,0,0,0,1,1,0,0,0,1,0,1,
|1,1,0,0,1,1,1,0,0,1,0,1,1,1,0,0,1,0,
|1,0,0,1,1,0,0,0,1,1,1,0,1,1,0,1,1,0,
|1,1,0,0,0,1,1,1,0,0,1,1,0,1,1,1,1,1,
|0,1,1,0,1,0,1,0,0,0,1,1,1,0,1,1,1,0,
|0,0,1,0,1,0,0,0,1,0,0,0,1,1,0,0,0,1,
|0,1,0,0,0,0,1,1,0,1,0,1,1,1,0,0,1,1,
|1,0,1,0,0,0,0,1,1,0,1,1,1,1,0,1,0,1,
|1,0,1,0,0,1,1,1,1,1,0,0,1,0,1,1,1,0,
|];